c description: Tseitin formula on , with even charge
c generator: CNFgen (0.9.0)
c copyright: (C) 2012-2020 Massimo Lauria <massimo.lauria@uniroma1.it>
c url: https://massimolauria.net/cnfgen
c
p cnf 30 360
1 2 3 4 5 6 -7 0
1 2 3 4 5 -6 7 0
1 2 3 4 -5 6 7 0
1 2 3 4 -5 -6 -7 0
1 2 3 -4 5 6 7 0
1 2 3 -4 5 -6 -7 0
1 2 3 -4 -5 6 -7 0
1 2 3 -4 -5 -6 7 0
1 2 -3 4 5 6 7 0
1 2 -3 4 5 -6 -7 0
1 2 -3 4 -5 6 -7 0
1 2 -3 4 -5 -6 7 0
1 2 -3 -4 5 6 -7 0
1 2 -3 -4 5 -6 7 0
1 2 -3 -4 -5 6 7 0
1 2 -3 -4 -5 -6 -7 0
1 -2 3 4 5 6 7 0
1 -2 3 4 5 -6 -7 0
1 -2 3 4 -5 6 -7 0
1 -2 3 4 -5 -6 7 0
1 -2 3 -4 5 6 -7 0
1 -2 3 -4 5 -6 7 0
1 -2 3 -4 -5 6 7 0
1 -2 3 -4 -5 -6 -7 0
1 -2 -3 4 5 6 -7 0
1 -2 -3 4 5 -6 7 0
1 -2 -3 4 -5 6 7 0
1 -2 -3 4 -5 -6 -7 0
1 -2 -3 -4 5 6 7 0
1 -2 -3 -4 5 -6 -7 0
1 -2 -3 -4 -5 6 -7 0
1 -2 -3 -4 -5 -6 7 0
-1 2 3 4 5 6 7 0
-1 2 3 4 5 -6 -7 0
-1 2 3 4 -5 6 -7 0
-1 2 3 4 -5 -6 7 0
-1 2 3 -4 5 6 -7 0
-1 2 3 -4 5 -6 7 0
-1 2 3 -4 -5 6 7 0
-1 2 3 -4 -5 -6 -7 0
-1 2 -3 4 5 6 -7 0
-1 2 -3 4 5 -6 7 0
-1 2 -3 4 -5 6 7 0
-1 2 -3 4 -5 -6 -7 0
-1 2 -3 -4 5 6 7 0
-1 2 -3 -4 5 -6 -7 0
-1 2 -3 -4 -5 6 -7 0
-1 2 -3 -4 -5 -6 7 0
-1 -2 3 4 5 6 -7 0
-1 -2 3 4 5 -6 7 0
-1 -2 3 4 -5 6 7 0
-1 -2 3 4 -5 -6 -7 0
-1 -2 3 -4 5 6 7 0
-1 -2 3 -4 5 -6 -7 0
-1 -2 3 -4 -5 6 -7 0
-1 -2 3 -4 -5 -6 7 0
-1 -2 -3 4 5 6 7 0
-1 -2 -3 4 5 -6 -7 0
-1 -2 -3 4 -5 6 -7 0
-1 -2 -3 4 -5 -6 7 0
-1 -2 -3 -4 5 6 -7 0
-1 -2 -3 -4 5 -6 7 0
-1 -2 -3 -4 -5 6 7 0
-1 -2 -3 -4 -5 -6 -7 0
8 9 10 11 12 -13 0
8 9 10 11 -12 13 0
8 9 10 -11 12 13 0
8 9 10 -11 -12 -13 0
8 9 -10 11 12 13 0
8 9 -10 11 -12 -13 0
8 9 -10 -11 12 -13 0
8 9 -10 -11 -12 13 0
8 -9 10 11 12 13 0
8 -9 10 11 -12 -13 0
8 -9 10 -11 12 -13 0
8 -9 10 -11 -12 13 0
8 -9 -10 11 12 -13 0
8 -9 -10 11 -12 13 0
8 -9 -10 -11 12 13 0
8 -9 -10 -11 -12 -13 0
-8 9 10 11 12 13 0
-8 9 10 11 -12 -13 0
-8 9 10 -11 12 -13 0
-8 9 10 -11 -12 13 0
-8 9 -10 11 12 -13 0
-8 9 -10 11 -12 13 0
-8 9 -10 -11 12 13 0
-8 9 -10 -11 -12 -13 0
-8 -9 10 11 12 -13 0
-8 -9 10 11 -12 13 0
-8 -9 10 -11 12 13 0
-8 -9 10 -11 -12 -13 0
-8 -9 -10 11 12 13 0
-8 -9 -10 11 -12 -13 0
-8 -9 -10 -11 12 -13 0
-8 -9 -10 -11 -12 13 0
1 14 15 16 17 -18 0
1 14 15 16 -17 18 0
1 14 15 -16 17 18 0
1 14 15 -16 -17 -18 0
1 14 -15 16 17 18 0
1 14 -15 16 -17 -18 0
1 14 -15 -16 17 -18 0
1 14 -15 -16 -17 18 0
1 -14 15 16 17 18 0
1 -14 15 16 -17 -18 0
1 -14 15 -16 17 -18 0
1 -14 15 -16 -17 18 0
1 -14 -15 16 17 -18 0
1 -14 -15 16 -17 18 0
1 -14 -15 -16 17 18 0
1 -14 -15 -16 -17 -18 0
-1 14 15 16 17 18 0
-1 14 15 16 -17 -18 0
-1 14 15 -16 17 -18 0
-1 14 15 -16 -17 18 0
-1 14 -15 16 17 -18 0
-1 14 -15 16 -17 18 0
-1 14 -15 -16 17 18 0
-1 14 -15 -16 -17 -18 0
-1 -14 15 16 17 -18 0
-1 -14 15 16 -17 18 0
-1 -14 15 -16 17 18 0
-1 -14 15 -16 -17 -18 0
-1 -14 -15 16 17 18 0
-1 -14 -15 16 -17 -18 0
-1 -14 -15 -16 17 -18 0
-1 -14 -15 -16 -17 18 0
2 8 14 19 20 -21 0
2 8 14 19 -20 21 0
2 8 14 -19 20 21 0
2 8 14 -19 -20 -21 0
2 8 -14 19 20 21 0
2 8 -14 19 -20 -21 0
2 8 -14 -19 20 -21 0
2 8 -14 -19 -20 21 0
2 -8 14 19 20 21 0
2 -8 14 19 -20 -21 0
2 -8 14 -19 20 -21 0
2 -8 14 -19 -20 21 0
2 -8 -14 19 20 -21 0
2 -8 -14 19 -20 21 0
2 -8 -14 -19 20 21 0
2 -8 -14 -19 -20 -21 0
-2 8 14 19 20 21 0
-2 8 14 19 -20 -21 0
-2 8 14 -19 20 -21 0
-2 8 14 -19 -20 21 0
-2 8 -14 19 20 -21 0
-2 8 -14 19 -20 21 0
-2 8 -14 -19 20 21 0
-2 8 -14 -19 -20 -21 0
-2 -8 14 19 20 -21 0
-2 -8 14 19 -20 21 0
-2 -8 14 -19 20 21 0
-2 -8 14 -19 -20 -21 0
-2 -8 -14 19 20 21 0
-2 -8 -14 19 -20 -21 0
-2 -8 -14 -19 20 -21 0
-2 -8 -14 -19 -20 21 0
3 9 15 22 23 24 -25 0
3 9 15 22 23 -24 25 0
3 9 15 22 -23 24 25 0
3 9 15 22 -23 -24 -25 0
3 9 15 -22 23 24 25 0
3 9 15 -22 23 -24 -25 0
3 9 15 -22 -23 24 -25 0
3 9 15 -22 -23 -24 25 0
3 9 -15 22 23 24 25 0
3 9 -15 22 23 -24 -25 0
3 9 -15 22 -23 24 -25 0
3 9 -15 22 -23 -24 25 0
3 9 -15 -22 23 24 -25 0
3 9 -15 -22 23 -24 25 0
3 9 -15 -22 -23 24 25 0
3 9 -15 -22 -23 -24 -25 0
3 -9 15 22 23 24 25 0
3 -9 15 22 23 -24 -25 0
3 -9 15 22 -23 24 -25 0
3 -9 15 22 -23 -24 25 0
3 -9 15 -22 23 24 -25 0
3 -9 15 -22 23 -24 25 0
3 -9 15 -22 -23 24 25 0
3 -9 15 -22 -23 -24 -25 0
3 -9 -15 22 23 24 -25 0
3 -9 -15 22 23 -24 25 0
3 -9 -15 22 -23 24 25 0
3 -9 -15 22 -23 -24 -25 0
3 -9 -15 -22 23 24 25 0
3 -9 -15 -22 23 -24 -25 0
3 -9 -15 -22 -23 24 -25 0
3 -9 -15 -22 -23 -24 25 0
-3 9 15 22 23 24 25 0
-3 9 15 22 23 -24 -25 0
-3 9 15 22 -23 24 -25 0
-3 9 15 22 -23 -24 25 0
-3 9 15 -22 23 24 -25 0
-3 9 15 -22 23 -24 25 0
-3 9 15 -22 -23 24 25 0
-3 9 15 -22 -23 -24 -25 0
-3 9 -15 22 23 24 -25 0
-3 9 -15 22 23 -24 25 0
-3 9 -15 22 -23 24 25 0
-3 9 -15 22 -23 -24 -25 0
-3 9 -15 -22 23 24 25 0
-3 9 -15 -22 23 -24 -25 0
-3 9 -15 -22 -23 24 -25 0
-3 9 -15 -22 -23 -24 25 0
-3 -9 15 22 23 24 -25 0
-3 -9 15 22 23 -24 25 0
-3 -9 15 22 -23 24 25 0
-3 -9 15 22 -23 -24 -25 0
-3 -9 15 -22 23 24 25 0
-3 -9 15 -22 23 -24 -25 0
-3 -9 15 -22 -23 24 -25 0
-3 -9 15 -22 -23 -24 25 0
-3 -9 -15 22 23 24 25 0
-3 -9 -15 22 23 -24 -25 0
-3 -9 -15 22 -23 24 -25 0
-3 -9 -15 22 -23 -24 25 0
-3 -9 -15 -22 23 24 -25 0
-3 -9 -15 -22 23 -24 25 0
-3 -9 -15 -22 -23 24 25 0
-3 -9 -15 -22 -23 -24 -25 0
4 10 26 -27 0
4 10 -26 27 0
4 -10 26 27 0
4 -10 -26 -27 0
-4 10 26 27 0
-4 10 -26 -27 0
-4 -10 26 -27 0
-4 -10 -26 27 0
5 16 19 22 28 -29 0
5 16 19 22 -28 29 0
5 16 19 -22 28 29 0
5 16 19 -22 -28 -29 0
5 16 -19 22 28 29 0
5 16 -19 22 -28 -29 0
5 16 -19 -22 28 -29 0
5 16 -19 -22 -28 29 0
5 -16 19 22 28 29 0
5 -16 19 22 -28 -29 0
5 -16 19 -22 28 -29 0
5 -16 19 -22 -28 29 0
5 -16 -19 22 28 -29 0
5 -16 -19 22 -28 29 0
5 -16 -19 -22 28 29 0
5 -16 -19 -22 -28 -29 0
-5 16 19 22 28 29 0
-5 16 19 22 -28 -29 0
-5 16 19 -22 28 -29 0
-5 16 19 -22 -28 29 0
-5 16 -19 22 28 -29 0
-5 16 -19 22 -28 29 0
-5 16 -19 -22 28 29 0
-5 16 -19 -22 -28 -29 0
-5 -16 19 22 28 -29 0
-5 -16 19 22 -28 29 0
-5 -16 19 -22 28 29 0
-5 -16 19 -22 -28 -29 0
-5 -16 -19 22 28 29 0
-5 -16 -19 22 -28 -29 0
-5 -16 -19 -22 28 -29 0
-5 -16 -19 -22 -28 29 0
11 17 23 26 28 -30 0
11 17 23 26 -28 30 0
11 17 23 -26 28 30 0
11 17 23 -26 -28 -30 0
11 17 -23 26 28 30 0
11 17 -23 26 -28 -30 0
11 17 -23 -26 28 -30 0
11 17 -23 -26 -28 30 0
11 -17 23 26 28 30 0
11 -17 23 26 -28 -30 0
11 -17 23 -26 28 -30 0
11 -17 23 -26 -28 30 0
11 -17 -23 26 28 -30 0
11 -17 -23 26 -28 30 0
11 -17 -23 -26 28 30 0
11 -17 -23 -26 -28 -30 0
-11 17 23 26 28 30 0
-11 17 23 26 -28 -30 0
-11 17 23 -26 28 -30 0
-11 17 23 -26 -28 30 0
-11 17 -23 26 28 -30 0
-11 17 -23 26 -28 30 0
-11 17 -23 -26 28 30 0
-11 17 -23 -26 -28 -30 0
-11 -17 23 26 28 -30 0
-11 -17 23 26 -28 30 0
-11 -17 23 -26 28 30 0
-11 -17 23 -26 -28 -30 0
-11 -17 -23 26 28 30 0
-11 -17 -23 26 -28 -30 0
-11 -17 -23 -26 28 -30 0
-11 -17 -23 -26 -28 30 0
6 12 20 24 27 -29 0
6 12 20 24 -27 29 0
6 12 20 -24 27 29 0
6 12 20 -24 -27 -29 0
6 12 -20 24 27 29 0
6 12 -20 24 -27 -29 0
6 12 -20 -24 27 -29 0
6 12 -20 -24 -27 29 0
6 -12 20 24 27 29 0
6 -12 20 24 -27 -29 0
6 -12 20 -24 27 -29 0
6 -12 20 -24 -27 29 0
6 -12 -20 24 27 -29 0
6 -12 -20 24 -27 29 0
6 -12 -20 -24 27 29 0
6 -12 -20 -24 -27 -29 0
-6 12 20 24 27 29 0
-6 12 20 24 -27 -29 0
-6 12 20 -24 27 -29 0
-6 12 20 -24 -27 29 0
-6 12 -20 24 27 -29 0
-6 12 -20 24 -27 29 0
-6 12 -20 -24 27 29 0
-6 12 -20 -24 -27 -29 0
-6 -12 20 24 27 -29 0
-6 -12 20 24 -27 29 0
-6 -12 20 -24 27 29 0
-6 -12 20 -24 -27 -29 0
-6 -12 -20 24 27 29 0
-6 -12 -20 24 -27 -29 0
-6 -12 -20 -24 27 -29 0
-6 -12 -20 -24 -27 29 0
7 13 18 21 25 -30 0
7 13 18 21 -25 30 0
7 13 18 -21 25 30 0
7 13 18 -21 -25 -30 0
7 13 -18 21 25 30 0
7 13 -18 21 -25 -30 0
7 13 -18 -21 25 -30 0
7 13 -18 -21 -25 30 0
7 -13 18 21 25 30 0
7 -13 18 21 -25 -30 0
7 -13 18 -21 25 -30 0
7 -13 18 -21 -25 30 0
7 -13 -18 21 25 -30 0
7 -13 -18 21 -25 30 0
7 -13 -18 -21 25 30 0
7 -13 -18 -21 -25 -30 0
-7 13 18 21 25 30 0
-7 13 18 21 -25 -30 0
-7 13 18 -21 25 -30 0
-7 13 18 -21 -25 30 0
-7 13 -18 21 25 -30 0
-7 13 -18 21 -25 30 0
-7 13 -18 -21 25 30 0
-7 13 -18 -21 -25 -30 0
-7 -13 18 21 25 -30 0
-7 -13 18 21 -25 30 0
-7 -13 18 -21 25 30 0
-7 -13 18 -21 -25 -30 0
-7 -13 -18 21 25 30 0
-7 -13 -18 21 -25 -30 0
-7 -13 -18 -21 25 -30 0
-7 -13 -18 -21 -25 30 0